(set-info :Origin "This instance was generated by: BanditFuzz-- an RL fuzzer for SMT solvers" )
(set-info :Author "Joe Scott, Fed Mora, Vijay Ganesh" )
(set-info :Contact "Joe Scott, joseph.scott@uwaterloo.ca")
(set-logic QF_BV)
(declare-const bool_0 Bool)
(declare-const bool_1 Bool)
(declare-const bool_2 Bool)
(declare-const bool_3 Bool)
(declare-const bool_4 Bool)
(declare-const bv_0 (_ BitVec 32))
(declare-const bv_1 (_ BitVec 32))
(declare-const bv_2 (_ BitVec 32))
(declare-const bv_3 (_ BitVec 32))
(declare-const bv_4 (_ BitVec 32))
(assert (bvuge (bvurem (bvsub bv_1 #xfe28632a ) (bvurem #xdd6cc8cc  #x13d04c01 )) (bvashr (bvand bv_4 #x93402c06 ) (bvxor #xd45ef8f6  bv_0))))
(assert (not (=> (bvult #xd57baf87  bv_2) (bvuge bv_0 bv_2))))
(assert (bvsle (bvxor (bvurem bv_4 #x08b06a4b ) (bvshl #x93c575de  #x29dfc21c )) (bvashr (bvnand bv_1 bv_2) (bvlshr bv_3 bv_3))))
(assert (bvsle (bvsrem (bvsmod #xff3ee63e  #x6a125df2 ) (bvor bv_2 #x5798c6b8 )) (bvashr (bvnor bv_2 bv_2) (bvnor bv_3 bv_4))))
(assert (bvslt (bvsrem (bvxor bv_4 #xfa03cc38 ) (bvashr #x7f5e0efc  bv_3)) (bvsmod (bvand #x9259c2d3  bv_0) (bvshl #xcab0ac4f  #x2aca32ab ))))
(check-sat)
(exit)
